NAME : amtsp
TYPE : ATSP
DIMENSION : 6
EDGE_WEIGHT_TYPE : EXPLICIT
EDGE_WEIGHT_FORMAT : FULL_MATRIX
EDGE_WEIGHT_SECTION
100000 -100000 100000 100000 100000 100000 
100000 100000 562 354 246 100000 
0 0 100000 296 229 540 
0 0 296 100000 89 250 
0 0 229 89 100000 329 
-100000 100000 540 250 329 100000 
